c turning on binary mode checking
c parsing input formula with 259840 variables and 1039924 clauses
c finished parsing, read 3408246 bytes from proof file
c detected empty clause; start verification via backward checking
c 2651 of 1039924 clauses in core                            
c 870 of 131655 lemmas in core using 16907 resolution steps
c 0 RAT lemmas in core; 66 redundant literals in core lemmas
s VERIFIED
c verification time: 1.412 seconds
